4 
5  45 
6  02 15 30 43 56 
7  11 26 41 56 
8  11 26 41 56 
9  11 26 41 56 
10  13 28 43 58 
11  13 28 43 58 
12  13 28 43 58 
13  13 28 43 58 
14  13 28 43 58 
15  13 28 43 58 
16  13 28 43 58 
17  13 28 43 58 
18  13 28 43 58 
19  13 28 43 58 
20  13 28 43 58 
21  13 28 43 58 
22  13 30 45 
23  00 11 24 
0 
